Optimal - objective value 5.89774830
      0 C0000000           50000                      -0
      1 C0000001           50000                      -0
      2 C0000002               1                      -0
      3 C0000003               2                      -0
      4 C0000004               3                      -0
      5 C0000005               1                      -0
      6 C0000006               1                      -0
      7 C0000007               1                      -0
      8 C0000008               1                      -0
      9 C0000009               0                      -0
     10 C0000010               1                      -0
     11 C0000011               0                      -0
     12 C0000012               0                      -0
     13 C0000013               1                      -0
     14 C0000014               0                      -0
     15 C0000015               0                      -0
     16 C0000016               0                      -0
     17 C0000017               1                      -0
     18 C0000018               0                      -0
     19 C0000019               1                      -0
     20 C0000020               1                      -0
     21 C0000021               0                      -0
     22 C0000022               0                      -0
     23 C0000023               1                      -0
     24 C0000024               1                      -0
     25 C0000025               0                      -0
     26 C0000026               0                      -0
     27 C0000027               1                      -0
     28 C0000028               0                      -0
     29 C0000029               0                      -0
     30 C0000030               0                      -0
     31 C0000031               0                      -0
     32 C0000032               0                      -0
     33 C0000033               0                      -0
     34 C0000034               0                      -0
     35 C0000035               0                      -0
     36 C0000036               0                      -0
     37 C0000037               0                      -0
     38 C0000038               0                      -0
     39 C0000039               0                      -0
     40 C0000040               0                      -0
     41 C0000041               1                      -0
     42 C0000042               0                      -0
     43 C0000043               0                      -0
     44 C0000044               0                      -0
     45 C0000045               0                      -0
     46 C0000046               1                      -0
     47 C0000047               0                      -0
     48 C0000048               0                      -0
     49 C0000049               0                      -0
     50 C0000050               0                      -0
     51 C0000051               0                      -0
     52 C0000052               0                      -0
     53 C0000053               1                      -0
     54 C0000054               0                      -0
     55 C0000055               0                      -0
     56 C0000056               0                      -0
     57 C0000057               0                      -0
     58 C0000058               0                      -0
     59 C0000059               0                      -0
     60 C0000060               0                      -0
     61 C0000061               0                      -0
     62 C0000062               0                      -0
     63 C0000063               0                      -0
     64 C0000064               0                      -0
     65 C0000065               0                      -0
     66 C0000066               0                      -0
     67 C0000067               0                      -0
     68 C0000068               0                      -0
     69 C0000069               0                      -0
     70 C0000070               0                      -0
     71 C0000071               0                      -0
     72 C0000072               0                      -0
     73 C0000073               0                      -0
     74 C0000074               1                      -0
     75 C0000075               0                      -0
     76 C0000076               0                      -0
     77 C0000077               0                      -0
     78 C0000078               0                      -0
     79 C0000079               0                      -0
     80 C0000080               0                      -0
     81 C0000081               0                      -0
     82 C0000082               0                      -0
     83 C0000083               0                      -0
     84 C0000084               0                      -0
     85 C0000085               0                      -0
     86 C0000086               0                      -0
     87 C0000087               0                      -0
     88 C0000088               0                      -0
     89 C0000089               0                      -0
     90 C0000090               0                      -0
     91 C0000091               0                      -0
     92 C0000092               0                      -0
     93 C0000093               0                      -0
     94 C0000094               1                      -0
     95 C0000095               0                      -0
     96 C0000096               0                      -0
     97 C0000097               0                      -0
     98 C0000098               0                      -0
     99 C0000099               0                      -0
    100 C0000100               0                      -0
    101 C0000101               0                      -0
    102 C0000102               0                      -0
    103 C0000103               0                      -0
    104 C0000104               0                      -0
    105 C0000105               0                      -0
    106 C0000106               0                      -0
    107 C0000107               0                      -0
    108 C0000108               0                      -0
    109 C0000109               0                      -0
    110 C0000110               1                      -0
    111 C0000111               0                      -0
    112 C0000112               0                      -0
    113 C0000113               0                      -0
    114 C0000114               0                      -0
    115 C0000115               0                      -0
    116 C0000116               0                      -0
    117 C0000117               0                      -0
    118 C0000118               0                      -0
    119 C0000119               0                      -0
    120 C0000120               0                      -0
    121 C0000121               0                      -0
    122 C0000122               0                      -0
    123 C0000123               1                      -0
    124 C0000124               0                      -0
    125 C0000125               0                      -0
    126 C0000126               0                      -0
    127 C0000127               0                      -0
    128 C0000128               0                      -0
    129 C0000129               0                      -0
    130 C0000130               0                      -0
    131 C0000131               0                      -0
    132 C0000132               0                      -0
    133 C0000133               0                      -0
    134 C0000134               0                      -0
    135 C0000135               0                      -0
    136 C0000136               0                      -0
    137 C0000137               0                      -0
    138 C0000138               0                      -0
    139 C0000139               0                      -0
    140 C0000140               0                      -0
    141 C0000141               1                      -0
    142 C0000142               0                      -0
    143 C0000143               0                      -0
    144 C0000144               0                      -0
    145 C0000145               0                      -0
    146 C0000146               0                      -0
    147 C0000147               0                      -0
    148 C0000148               0                      -0
    149 C0000149               0                      -0
    150 C0000150               0                      -0
    151 C0000151               0                      -0
    152 C0000152               0                      -0
    153 C0000153               0                      -0
    154 C0000154               0                      -0
    155 C0000155               0                      -0
    156 C0000156               0                      -0
    157 C0000157               0                      -0
    158 C0000158               0                      -0
    159 C0000159               0                      -0
    160 C0000160               0                      -0
    161 C0000161               0                      -0
    162 C0000162               0                      -0
    163 C0000163               0                      -0
    164 C0000164               0                      -0
    165 C0000165               0                      -0
    166 C0000166               0                      -0
    167 C0000167               0                      -0
    168 C0000168               0                      -0
    169 C0000169               0                      -0
    170 C0000170               0                      -0
    171 C0000171               0                      -0
    172 C0000172               0                      -0
    173 C0000173               0                      -0
    174 C0000174               0                      -0
    175 C0000175               0                      -0
    176 C0000176               0                      -0
    177 C0000177               1                      -0
    178 C0000178               0                      -0
    179 C0000179               0                      -0
    180 C0000180               0                      -0
    181 C0000181               0                      -0
    182 C0000182               0                      -0
    183 C0000183               0                      -0
    184 C0000184               0                      -0
    185 C0000185               0                      -0
    186 C0000186               0                      -0
    187 C0000187               0                      -0
    188 C0000188               0                      -0
    189 C0000189               0                      -0
    190 C0000190               0                      -0
    191 C0000191               0                      -0
    192 C0000192               0                      -0
    193 C0000193               0                      -0
    194 C0000194               0                      -0
    195 C0000195           98.78                      -0
    196 C0000196          136.75                      -0
    197 C0000197               5                      -0
    198 C0000198               5                      -0
    199 C0000199               6                      -0
    200 C0000200               6                      -0
    201 C0000201               7                      -0
    202 C0000202               4                      -0
    203 C0000203               5                      -0
    204 C0000204               7                      -0
    205 C0000205               6                      -0
    206 C0000206               5                      -0
    207 C0000207               5                      -0
    208 C0000208               7                      -0
    209 C0000209               7                      -0
    210 C0000210               5                      -0
    211 C0000211               5                      -0
    212 C0000212               5                      -0
    213 C0000213               4                      -0
    214 C0000214               7                      -0
    215 C0000215               7                      -0
    216 C0000216               4                      -0
    217 C0000217               6                      -0
    218 C0000218               7                      -0
    219 C0000219               4                      -0
    220 C0000220               6                      -0
    221 C0000221               5                      -0
    222 C0000222               5                      -0
    223 C0000223               7                      -0
    224 C0000224               5                      -0
    225 C0000225               6                      -0
    226 C0000226               5                      -0
    227 C0000227               7                      -0
    228 C0000228               5                      -0
    229 C0000229               6                      -0
    230 C0000230               7                      -0
    231 C0000231               5                      -0
    232 C0000232               6                      -0
    233 C0000233               7                      -0
    234 C0000234               6                      -0
    235 C0000235               6                      -0
    236 C0000236               7                      -0
    237 C0000237               7                      -0
    238 C0000238               6                      -0
    239 C0000239               6                      -0
    240 C0000240               5                      -0
    241 C0000241               5                      -0
    242 C0000242               7                      -0
    243 C0000243               5                      -0
    244 C0000244               5                      -0
    245 C0000245               6                      -0
    246 C0000246               5                      -0
    247 C0000247               4                      -0
    248 C0000248               5                      -0
    249 C0000249               7                      -0
    250 C0000250               5                      -0
    251 C0000251               6                      -0
    252 C0000252               6                      -0
    253 C0000253               5                      -0
    254 C0000254               5                      -0
    255 C0000255               6                      -0
    256 C0000256               6                      -0
    257 C0000257               6                      -0
    258 C0000258               6                      -0
    259 C0000259               5                      -0
    260 C0000260               6                      -0
    261 C0000261               6                      -0
    262 C0000262               6                      -0
    263 C0000263               4                      -0
    264 C0000264               4                      -0
    265 C0000265               4                      -0
    266 C0000266               5                      -0
    267 C0000267               5                      -0
    268 C0000268               5                      -0
    269 C0000269               6                      -0
    270 C0000270               5                      -0
    271 C0000271               5                      -0
    272 C0000272               5                      -0
      0 X0000000               0             -0.20941165
      1 X0000001               0              0.64987889
      2 X0000002               0              0.64987889
      3 X0000003               0              0.51532887
      4 X0000004               0              0.51532887
      5 X0000005               0              0.99246955
      6 X0000006               0              0.54625969
      7 X0000007               0              0.54625969
      8 X0000008               0              0.27207882
      9 X0000009               0              0.27207882
     10 X0000010               1                       1
     11 X0000011               0              0.43702887
     12 X0000012               0              0.43702887
     13 X0000013               0              0.46359637
     14 X0000014               0              0.46359637
     15 X0000015               0              0.42238044
     16 X0000016               0              0.42238044
     17 X0000017               0              0.33704235
     18 X0000018               0              0.33704235
     19 X0000019               0              0.60490308
     20 X0000020               0              0.60490308
     21 X0000021               0              0.32016823
     22 X0000022               0              0.32016823
     23 X0000023               0              0.67110404
     24 X0000024               0              0.18983263
     25 X0000025               0              0.18983263
     26 X0000026               0            -0.045332061
     27 X0000027               0            -0.045332061
     28 X0000028               0              0.10607709
     29 X0000029               0               0.0327439
     30 X0000030               0               0.0327439
     31 X0000031               0              0.25496912
     32 X0000032               0              0.69157076
     33 X0000033               0              0.69157076
     34 X0000034               0              0.26897799
     35 X0000035               0              0.17993877
     36 X0000036               0              0.17993877
     37 X0000037               0               0.5234317
     38 X0000038               0               0.5234317
     39 X0000039               0              0.44335326
     40 X0000040               0              0.44335326
     41 X0000041               0              0.49484765
     42 X0000042               0              0.49484765
     43 X0000043               0              0.59006831
     44 X0000044               0              0.59006831
     45 X0000045               0              0.64994169
     46 X0000046               0              0.64994169
     47 X0000047               0              0.81341605
     48 X0000048               0             -0.16726463
     49 X0000049               0              0.87128973
     50 X0000050               0              0.66222934
     51 X0000051               0              0.50897186
     52 X0000052               0              0.50897186
     53 X0000053               0              0.17445317
     54 X0000054               0              0.17445317
     55 X0000055               0              0.18300458
     56 X0000056               0              0.72261109
     57 X0000057               0              0.72261109
     58 X0000058               0             0.097543682
     59 X0000059               0             0.097543682
     60 X0000060               0              0.65773265
     61 X0000061               0              0.65773265
     62 X0000062               0              0.27933623
     63 X0000063               0              0.27933623
     64 X0000064               1              0.22216361
     65 X0000065               0             -0.12331878
     66 X0000066               0              0.50835219
     67 X0000067               0              0.50835219
     68 X0000068               0             0.098637563
     69 X0000069               0             0.098637563
     70 X0000070               0              0.42532207
     71 X0000071               0              0.42532207
     72 X0000072               0              0.46967731
     73 X0000073               0              0.46967731
     74 X0000074               0              0.65804878
     75 X0000075               1              0.65804878
     76 X0000076               0              0.43811691
     77 X0000077               0              0.43811691
     78 X0000078               0             0.078575535
     79 X0000079               0             0.078575535
     80 X0000080               0              0.22898937
     81 X0000081               0              0.22898937
     82 X0000082               0              0.37336007
     83 X0000083               0              0.37336007
     84 X0000084               0              0.65942016
     85 X0000085               0              0.65942016
     86 X0000086               0              0.33901968
     87 X0000087               0              0.33901968
     88 X0000088               0              0.64377772
     89 X0000089               0              0.64377772
     90 X0000090               0              0.49447423
     91 X0000091               0              0.49447423
     92 X0000092               0              0.52692809
     93 X0000093               0              0.52692809
     94 X0000094               0              0.33921166
     95 X0000095               0              0.33921166
     96 X0000096               0              0.28639476
     97 X0000097               0              0.28639476
     98 X0000098               0              0.22787915
     99 X0000099               0              0.22787915
    100 X0000100               0              0.23189908
    101 X0000101               0              0.23189908
    102 X0000102               0              0.16985064
    103 X0000103               0              0.89453145
    104 X0000104               0              0.53097086
    105 X0000105               0              0.53097086
    106 X0000106               0               0.7577189
    107 X0000107               0              0.83198292
    108 X0000108               0              0.26335009
    109 X0000109               0              0.26335009
    110 X0000110               0               0.2100345
    111 X0000111               1              0.55171678
    112 X0000112               0              0.55171678
    113 X0000113               0              0.26389435
    114 X0000114               0              0.53219644
    115 X0000115               0              0.53219644
    116 X0000116               0               0.9228985
    117 X0000117               0              0.68666196
    118 X0000118               1              0.68666196
    119 X0000119               0             -0.12915845
    120 X0000120               0              0.29191074
    121 X0000121               0              0.29191074
    122 X0000122               0              0.50737927
    123 X0000123               0              0.50737927
    124 X0000124               0              0.20954164
    125 X0000125               0              0.20954164
    126 X0000126               0              0.72115089
    127 X0000127               0              0.72115089
    128 X0000128               0             0.034743347
    129 X0000129               0             0.034743347
    130 X0000130               0              0.17588822
    131 X0000131               0              0.80800196
    132 X0000132               1              0.80800196
    133 X0000133               0              0.58560553
    134 X0000134               0              0.58560553
    135 X0000135               0              0.59042903
    136 X0000136               1              0.59042903
    137 X0000137               0              0.69001101
    138 X0000138               0              0.68781963
    139 X0000139               1              0.68781963
    140 X0000140               0              0.51838547
    141 X0000141               0              0.51838547
    142 X0000142               0              0.59598532
    143 X0000143               0              0.59598532
    144 X0000144               0              0.98522615
    145 X0000145               0              0.63656375
    146 X0000146               0              0.63656375
    147 X0000147               0              0.54246752
    148 X0000148               0              0.54246752
    149 X0000149               0              0.86844614
    150 X0000150               0               0.3161105
    151 X0000151               0               0.3161105
    152 X0000152               0              0.42086839
    153 X0000153               0              0.42086839
    154 X0000154               0              0.54920419
    155 X0000155               0              0.54920419
    156 X0000156               0             -0.12496257
    157 X0000157               0              0.87332163
    158 X0000158               0              0.55268452
    159 X0000159               0              0.55268452
    160 X0000160               0              0.55521479
    161 X0000161               0              0.55521479
    162 X0000162               0              0.56833268
    163 X0000163               0              0.56833268
    164 X0000164               0              0.17477957
    165 X0000165               0              0.17477957
    166 X0000166               0               0.8400048
    167 X0000167               0              0.48842704
    168 X0000168               0              0.48842704
    169 X0000169               0               0.6398575
    170 X0000170               0               0.6398575
    171 X0000171               0              0.33563345
    172 X0000172               0              0.33563345
    173 X0000173               0              0.55198856
    174 X0000174               0              0.55198856
    175 X0000175               0              0.16964908
    176 X0000176               0              0.16964908
    177 X0000177               0              0.15516318
    178 X0000178               0              0.15516318
    179 X0000179               0               0.5219998
    180 X0000180               0               0.5219998
    181 X0000181               0               0.3581501
    182 X0000182               0               0.3581501
    183 X0000183               0              0.60791327
    184 X0000184               0              0.60791327
    185 X0000185               0              0.34905165
    186 X0000186               0              0.34905165
    187 X0000187               0              0.71509068
    188 X0000188               0               0.5953252
    189 X0000189               0               0.5953252
    190 X0000190               0             -0.24694635
    191 X0000191               0              0.64415791
    192 X0000192               0              0.66022223
    193 X0000193               0              0.66022223
    194 X0000194               0              0.33667672
    195 X0000195               0              0.33667672
    196 X0000196               0              0.53217862
    197 X0000197               0              0.53217862
    198 X0000198               0              0.78847327
    199 X0000199               0              0.76988891
    200 X0000200               0               0.1744086
    201 X0000201               0               0.1744086
    202 X0000202               0               0.7212675
    203 X0000203               0              0.52913209
    204 X0000204               0              0.52913209
    205 X0000205               0              0.35698057
    206 X0000206               0              0.35698057
    207 X0000207               0              0.33432583
    208 X0000208               0              0.33432583
    209 X0000209               0              0.45893117
    210 X0000210               0              0.45893117
    211 X0000211               0             0.051931201
    212 X0000212               0             0.051931201
    213 X0000213               0              0.30831434
    214 X0000214               0              0.30831434
    215 X0000215               0             -0.11798875
    216 X0000216               0               0.3539466
    217 X0000217               0               0.3539466
    218 X0000218               0              0.40255465
    219 X0000219               0              0.40255465
    220 X0000220               0              0.68716828
    221 X0000221               0              0.68716828
    222 X0000222               0               0.2121055
    223 X0000223               0               0.2121055
    224 X0000224               0               -0.137601
    225 X0000225               0              0.20242926
    226 X0000226               0              0.22767337
    227 X0000227               0              0.22767337
    228 X0000228               0              0.41667889
    229 X0000229               0              0.41667889
    230 X0000230               0              0.44996899
    231 X0000231               0              0.44996899
    232 X0000232               0             -0.18034456
    233 X0000233               0             -0.18034456
    234 X0000234               0              0.42156776
    235 X0000235               0              0.42156776
    236 X0000236               0              0.13533304
    237 X0000237               0              0.13533304
    238 X0000238               0              0.71758903
    239 X0000239               0              0.45480471
    240 X0000240               0              0.45480471
    241 X0000241               0              0.64576552
    242 X0000242               0              0.64576552
    243 X0000243               0             -0.17734294
    244 X0000244               0              0.47162516
    245 X0000245               0              0.47162516
    246 X0000246               0              0.27631747
    247 X0000247               0              0.27631747
    248 X0000248               0              0.69290655
    249 X0000249               1              0.69290655
    250 X0000250               0              0.70485897
    251 X0000251               0              0.70485897
    252 X0000252               0             0.044581094
    253 X0000253               0             0.044581094
    254 X0000254               0             -0.14115674
    255 X0000255               0              0.51265998
    256 X0000256               0              0.51265998
    257 X0000257               0              0.42046969
    258 X0000258               0              0.42046969
    259 X0000259               0              0.44502392
    260 X0000260               0              0.44502392
    261 X0000261               0              0.21316975
    262 X0000262               0              0.21316975
    263 X0000263               0                0.583986
    264 X0000264               0                0.583986
    265 X0000265               0              0.69734932
    266 X0000266               0              0.19096939
    267 X0000267               0              0.19096939
    268 X0000268               0              0.31485767
    269 X0000269               0              0.31485767
    270 X0000270               0              0.29268987
    271 X0000271               0              0.29268987
    272 X0000272               0              0.25770012
    273 X0000273               0              0.25770012
    274 X0000274               0              0.23451967
    275 X0000275               0              0.23451967
    276 X0000276               0              0.23514922
    277 X0000277               0              0.23514922
    278 X0000278               0              0.55756749
    279 X0000279               0              0.55756749
    280 X0000280               0              0.47406214
    281 X0000281               0              0.47406214
    282 X0000282               0              0.20872564
    283 X0000283               0              0.52814025
    284 X0000284               0              0.52814025
    285 X0000285               0              0.31764481
    286 X0000286               0              0.31764481
